;; produced by cvc4_16.drv ;;
(set-logic AUFBVFPDTNIRA)
(set-info :smt-lib-version 2.6)
;;; generated by SMT-LIB2 driver
;;; SMT-LIB2 driver: bit-vectors, common part
;;; SMT-LIB2: integer arithmetic
(declare-sort string 0)

(declare-datatypes ((tuple0 0))
(((Tuple0))))
(declare-sort us_private 0)

(declare-fun private__bool_eq (us_private us_private) Bool)

(declare-const us_null_ext__ us_private)

(declare-sort us_type_of_heap 0)

(declare-datatypes ((us_type_of_heap__ref 0))
(((us_type_of_heap__refqtmk (us_type_of_heap__content us_type_of_heap)))))
(declare-sort us_image 0)

(declare-datatypes ((int__ref 0))
(((int__refqtmk (int__content Int)))))
(declare-datatypes ((bool__ref 0))
(((bool__refqtmk (bool__content Bool)))))
(declare-datatypes ((us_fixed__ref 0))
(((us_fixed__refqtmk (us_fixed__content Int)))))
(declare-datatypes ((real__ref 0))
(((real__refqtmk (real__content Real)))))
(declare-datatypes ((us_private__ref 0))
(((us_private__refqtmk (us_private__content us_private)))))
(define-fun int__ref___projection ((a int__ref)) Int (int__content a))

(define-fun us_fixed__ref___projection ((a us_fixed__ref)) Int (us_fixed__content
                                                               a))

(define-fun bool__ref___projection ((a bool__ref)) Bool (bool__content a))

(define-fun real__ref___projection ((a real__ref)) Real (real__content a))

(define-fun us_private__ref___projection ((a us_private__ref)) us_private 
  (us_private__content a))

(declare-fun nth ((_ BitVec 8) Int) Bool)

(declare-fun lsr ((_ BitVec 8) Int) (_ BitVec 8))

(declare-fun asr ((_ BitVec 8) Int) (_ BitVec 8))

(declare-fun lsl ((_ BitVec 8) Int) (_ BitVec 8))

(define-fun abs1 ((x Int)) Int (ite (<= 0 x) x (- x)))

;; Abs_le
  (assert
  (forall ((x Int) (y Int)) (= (<= (abs1 x) y) (and (<= (- y) x) (<= x y)))))

;; Abs_pos
  (assert (forall ((x Int)) (<= 0 (abs1 x))))

;; Div_unique
  (assert
  (forall ((x Int) (y Int) (q Int))
  (=> (< 0 y) (=> (and (<= (* q y) x) (< x (+ (* q y) y))) (= (div x y) q)))))

;; Div_bound
  (assert
  (forall ((x Int) (y Int))
  (=> (and (<= 0 x) (< 0 y)) (and (<= 0 (div x y)) (<= (div x y) x)))))

;; Div_inf
  (assert
  (forall ((x Int) (y Int)) (=> (and (<= 0 x) (< x y)) (= (div x y) 0))))

;; Div_inf_neg
  (assert
  (forall ((x Int) (y Int))
  (=> (and (< 0 x) (<= x y)) (= (div (- x) y) (- 1)))))

;; Mod_0
  (assert (forall ((y Int)) (=> (not (= y 0)) (= (mod 0 y) 0))))

;; Div_1_left
  (assert (forall ((y Int)) (=> (< 1 y) (= (div 1 y) 0))))

;; Div_minus1_left
  (assert (forall ((y Int)) (=> (< 1 y) (= (div (- 1) y) (- 1)))))

;; Mod_1_left
  (assert (forall ((y Int)) (=> (< 1 y) (= (mod 1 y) 1))))

;; Mod_minus1_left
  (assert
  (forall ((y Int))
  (! (=> (< 1 y) (= (mod (- 1) y) (- y 1))) :pattern ((mod (- 1) y)) )))

;; Div_mult
  (assert
  (forall ((x Int) (y Int) (z Int))
  (! (=> (< 0 x) (= (div (+ (* x y) z) x) (+ y (div z x)))) :pattern ((div (+ (* x y) z) x)) )))

;; Mod_mult
  (assert
  (forall ((x Int) (y Int) (z Int))
  (! (=> (< 0 x) (= (mod (+ (* x y) z) x) (mod z x))) :pattern ((mod (+ (* x y) z) x)) )))

(declare-fun rotate_right1 ((_ BitVec 8) Int) (_ BitVec 8))

(declare-fun rotate_left1 ((_ BitVec 8) Int) (_ BitVec 8))

(declare-fun pow2 (Int) Int)

(define-fun to_int1 ((x (_ BitVec 8))) Int (ite (bvsge x (_ bv0 8))
                                           (bv2nat x) (- (- 256 (bv2nat x)))))

(define-fun uint_in_range ((i Int)) Bool (and (<= 0 i) (<= i 255)))

;; lsr_bv_is_lsr
  (assert
  (forall ((x (_ BitVec 8)) (n (_ BitVec 8)))
  (= (bvlshr x n) (lsr x (bv2nat n)))))

;; asr_bv_is_asr
  (assert
  (forall ((x (_ BitVec 8)) (n (_ BitVec 8)))
  (= (bvashr x n) (asr x (bv2nat n)))))

;; lsl_bv_is_lsl
  (assert
  (forall ((x (_ BitVec 8)) (n (_ BitVec 8)))
  (= (bvshl x n) (lsl x (bv2nat n)))))

;; rotate_left_bv_is_rotate_left
  (assert
  (forall ((v (_ BitVec 8)) (n (_ BitVec 8)))
  (= (bvor (bvshl v (bvurem n (_ bv8 8))) (bvlshr v (bvsub (_ bv8 8) (bvurem n (_ bv8 8))))) 
  (rotate_left1 v (bv2nat n)))))

;; rotate_right_bv_is_rotate_right
  (assert
  (forall ((v (_ BitVec 8)) (n (_ BitVec 8)))
  (= (bvor (bvlshr v (bvurem n (_ bv8 8))) (bvshl v (bvsub (_ bv8 8) (bvurem n (_ bv8 8))))) 
  (rotate_right1 v (bv2nat n)))))

(declare-fun nth_bv ((_ BitVec 8) (_ BitVec 8)) Bool)

;; nth_bv_def
  (assert
  (forall ((x (_ BitVec 8)) (i (_ BitVec 8)))
  (= (= (nth_bv x i) true) (not (= (bvand (bvlshr x i) #x01) #x00)))))

;; Nth_bv_is_nth
  (assert
  (forall ((x (_ BitVec 8)) (i (_ BitVec 8)))
  (= (nth x (bv2nat i)) (nth_bv x i))))

;; Nth_bv_is_nth2
  (assert
  (forall ((x (_ BitVec 8)) (i Int))
  (=> (and (<= 0 i) (< i 256)) (= (nth_bv x ((_ int2bv 8) i)) (nth x i)))))

(declare-fun eq_sub_bv ((_ BitVec 8) (_ BitVec 8) (_ BitVec 8)
  (_ BitVec 8)) Bool)

;; eq_sub_bv_def
  (assert
  (forall ((a (_ BitVec 8)) (b (_ BitVec 8)) (i (_ BitVec 8))
  (n (_ BitVec 8)))
  (let ((mask (bvshl (bvsub (bvshl #x01 n) #x01) i)))
  (= (eq_sub_bv a b i n) (= (bvand b mask) (bvand a mask))))))

(define-fun eq_sub ((a (_ BitVec 8)) (b (_ BitVec 8)) (i Int)
  (n Int)) Bool (forall ((j Int))
                (=> (and (<= i j) (< j (+ i n))) (= (nth a j) (nth b j)))))

;; eq_sub_equiv
  (assert
  (forall ((a (_ BitVec 8)) (b (_ BitVec 8)) (i (_ BitVec 8))
  (n (_ BitVec 8)))
  (= (eq_sub a b (bv2nat i) (bv2nat n)) (eq_sub_bv a b i n))))

(declare-datatypes ((t__ref 0))
(((t__refqtmk (t__content (_ BitVec 8))))))
(declare-fun power ((_ BitVec 8) Int) (_ BitVec 8))

(define-fun bv_min ((x (_ BitVec 8))
  (y (_ BitVec 8))) (_ BitVec 8) (ite (bvule x y) x y))

(define-fun bv_max ((x (_ BitVec 8))
  (y (_ BitVec 8))) (_ BitVec 8) (ite (bvule x y) y x))

(define-fun min ((x Int) (y Int)) Int (ite (<= x y) x y))

(define-fun max ((x Int) (y Int)) Int (ite (<= x y) y x))

;; Min_r
  (assert (forall ((x Int) (y Int)) (=> (<= y x) (= (min x y) y))))

;; Max_l
  (assert (forall ((x Int) (y Int)) (=> (<= y x) (= (max x y) x))))

;; Min_comm
  (assert (forall ((x Int) (y Int)) (= (min x y) (min y x))))

;; Max_comm
  (assert (forall ((x Int) (y Int)) (= (max x y) (max y x))))

;; Min_assoc
  (assert
  (forall ((x Int) (y Int) (z Int)) (= (min (min x y) z) (min x (min y z)))))

;; Max_assoc
  (assert
  (forall ((x Int) (y Int) (z Int)) (= (max (max x y) z) (max x (max y z)))))

(define-fun in_range ((x Int)) Bool (or (= x 0) (= x 1)))

(declare-fun attr__ATTRIBUTE_IMAGE (Bool) us_image)

(declare-fun attr__ATTRIBUTE_VALUE__pre_check (us_image) Bool)

(declare-fun attr__ATTRIBUTE_VALUE (us_image) Bool)

(declare-sort digit_index_type 0)

(declare-fun digit_index_typeqtint (digit_index_type) Int)

;; digit_index_type'axiom
  (assert
  (forall ((i digit_index_type))
  (and (<= 1 (digit_index_typeqtint i))
  (<= (digit_index_typeqtint i) 2147483647))))

(define-fun in_range1 ((x Int)) Bool (and (<= 1 x) (<= x 2147483647)))

(declare-fun attr__ATTRIBUTE_IMAGE1 (Int) us_image)

(declare-fun attr__ATTRIBUTE_VALUE__pre_check1 (us_image) Bool)

(declare-fun attr__ATTRIBUTE_VALUE1 (us_image) Int)

(declare-fun user_eq (digit_index_type digit_index_type) Bool)

(declare-const dummy digit_index_type)

(declare-datatypes ((digit_index_type__ref 0))
(((digit_index_type__refqtmk (digit_index_type__content digit_index_type)))))
(define-fun digit_index_type__ref_digit_index_type__content__projection ((a digit_index_type__ref)) digit_index_type 
  (digit_index_type__content a))

(define-fun to_rep ((x digit_index_type)) Int (digit_index_typeqtint x))

(declare-fun of_rep (Int) digit_index_type)

;; inversion_axiom
  (assert
  (forall ((x digit_index_type))
  (! (= (of_rep (to_rep x)) x) :pattern ((to_rep x)) )))

;; range_axiom
  (assert
  (forall ((x digit_index_type)) (! (in_range1
  (to_rep x)) :pattern ((to_rep x)) )))

;; coerce_axiom
  (assert
  (forall ((x Int))
  (! (=> (in_range1 x) (= (to_rep (of_rep x)) x)) :pattern ((to_rep
                                                            (of_rep x))) )))

(declare-sort tdigit_index_typeB 0)

(declare-fun tdigit_index_typeBqtint (tdigit_index_typeB) Int)

;; tdigit_index_typeB'axiom
  (assert
  (forall ((i tdigit_index_typeB))
  (and (<= (- 2147483648) (tdigit_index_typeBqtint i))
  (<= (tdigit_index_typeBqtint i) 2147483647))))

(define-fun in_range2 ((x Int)) Bool (and (<= (- 2147483648) x)
                                     (<= x 2147483647)))

(declare-fun attr__ATTRIBUTE_IMAGE2 (Int) us_image)

(declare-fun attr__ATTRIBUTE_VALUE__pre_check2 (us_image) Bool)

(declare-fun attr__ATTRIBUTE_VALUE2 (us_image) Int)

(declare-fun user_eq1 (tdigit_index_typeB tdigit_index_typeB) Bool)

(declare-const dummy1 tdigit_index_typeB)

(declare-datatypes ((tdigit_index_typeB__ref 0))
(((tdigit_index_typeB__refqtmk
  (tdigit_index_typeB__content tdigit_index_typeB)))))
(define-fun tdigit_index_typeB__ref_tdigit_index_typeB__content__projection ((a tdigit_index_typeB__ref)) tdigit_index_typeB 
  (tdigit_index_typeB__content a))

(define-fun to_rep1 ((x tdigit_index_typeB)) Int (tdigit_index_typeBqtint x))

(declare-fun of_rep1 (Int) tdigit_index_typeB)

;; inversion_axiom
  (assert
  (forall ((x tdigit_index_typeB))
  (! (= (of_rep1 (to_rep1 x)) x) :pattern ((to_rep1 x)) )))

;; range_axiom
  (assert
  (forall ((x tdigit_index_typeB)) (! (in_range2
  (to_rep1 x)) :pattern ((to_rep1 x)) )))

;; coerce_axiom
  (assert
  (forall ((x Int))
  (! (=> (in_range2 x) (= (to_rep1 (of_rep1 x)) x)) :pattern ((to_rep1
                                                              (of_rep1 x))) )))

(declare-sort octet 0)

(declare-const attr__ATTRIBUTE_MODULUS (_ BitVec 8))

(declare-fun attr__ATTRIBUTE_IMAGE3 ((_ BitVec 8)) us_image)

(declare-fun attr__ATTRIBUTE_VALUE__pre_check3 (us_image) Bool)

(declare-fun attr__ATTRIBUTE_VALUE3 (us_image) (_ BitVec 8))

(declare-fun user_eq2 (octet octet) Bool)

(declare-const dummy2 octet)

(declare-datatypes ((octet__ref 0))
(((octet__refqtmk (octet__content octet)))))
(define-fun octet__ref_octet__content__projection ((a octet__ref)) octet 
  (octet__content a))

(declare-fun to_rep2 (octet) (_ BitVec 8))

(declare-fun of_rep2 ((_ BitVec 8)) octet)

;; inversion_axiom
  (assert
  (forall ((x octet))
  (! (= (of_rep2 (to_rep2 x)) x) :pattern ((to_rep2 x)) )))

;; range_axiom
  (assert true)

;; coerce_axiom
  (assert
  (forall ((x (_ BitVec 8)))
  (! (= (to_rep2 (of_rep2 x)) x) :pattern ((to_rep2 (of_rep2 x))) )))

(define-fun to_int2 ((x octet)) Int (bv2nat (to_rep2 x)))

;; range_int_axiom
  (assert
  (forall ((x octet)) (! (uint_in_range
  (to_int2 x)) :pattern ((to_int2 x)) )))

(declare-datatypes ((map__ref 0))
(((map__refqtmk (map__content (Array Int octet))))))
(declare-fun slide ((Array Int octet) Int Int) (Array Int octet))

;; slide_eq
  (assert
  (forall ((a (Array Int octet)))
  (forall ((first Int))
  (! (= (slide a first first) a) :pattern ((slide a first first)) ))))

;; slide_def
  (assert
  (forall ((a (Array Int octet)))
  (forall ((old_first Int))
  (forall ((new_first Int))
  (forall ((i Int))
  (! (= (select (slide a old_first new_first) i) (select a (- i (- new_first old_first)))) :pattern ((select 
  (slide a old_first new_first) i)) ))))))

(define-fun bool_eq ((a (Array Int octet)) (a__first Int) (a__last Int)
  (b (Array Int octet)) (b__first Int)
  (b__last Int)) Bool (ite (and
                           (ite (<= a__first a__last)
                           (and (<= b__first b__last)
                           (= (- a__last a__first) (- b__last b__first)))
                           (< b__last b__first))
                           (forall ((temp___idx_154 Int))
                           (=>
                           (and (<= a__first temp___idx_154)
                           (<= temp___idx_154 a__last))
                           (= (to_rep2 (select a temp___idx_154)) (to_rep2
                                                                  (select b (+ (- b__first a__first) temp___idx_154)))))))
                      true false))

;; bool_eq_rev
  (assert
  (forall ((a (Array Int octet)) (b (Array Int octet)))
  (forall ((a__first Int) (a__last Int) (b__first Int) (b__last Int))
  (=> (= (bool_eq b b__first b__last a a__first a__last) true)
  (and
  (ite (<= a__first a__last)
  (and (<= b__first b__last) (= (- a__last a__first) (- b__last b__first)))
  (< b__last b__first))
  (forall ((temp___idx_154 Int))
  (=> (and (<= a__first temp___idx_154) (<= temp___idx_154 a__last))
  (= (to_rep2 (select a temp___idx_154)) (to_rep2
                                         (select b (+ (- b__first a__first) temp___idx_154)))))))))))

(declare-sort t 0)

(declare-fun first (t) tdigit_index_typeB)

(declare-fun last (t) tdigit_index_typeB)

(declare-fun mk (Int Int) t)

;; mk_def
  (assert
  (forall ((f Int) (l Int))
  (! (=> (in_range2 f)
     (=> (in_range2 l)
     (and (= (to_rep1 (first (mk f l))) f) (= (to_rep1 (last (mk f l))) l)))) :pattern (
  (mk f l)) )))

(define-fun dynamic_property ((range_first Int) (range_last Int) (low Int)
  (high Int)) Bool (and (in_range2 low)
                   (and (in_range2 high)
                   (=> (<= low high) (and (in_range1 low) (in_range1 high))))))

(declare-datatypes ((us_t 0))
(((us_tqtmk (elts (Array Int octet))(rt t)))))
(define-fun to_array ((a us_t)) (Array Int octet) (elts a))

(define-fun of_array ((a (Array Int octet)) (f Int)
  (l Int)) us_t (us_tqtmk a (mk f l)))

(define-fun first1 ((a us_t)) Int (to_rep1 (first (rt a))))

(define-fun last1 ((a us_t)) Int (to_rep1 (last (rt a))))

(define-fun length ((a us_t)) Int (ite (<= (first1 a) (last1 a))
                                  (+ (- (last1 a) (first1 a)) 1) 0))

(declare-const value__size Int)

(declare-const object__size Int)

(declare-const component__size Int)

(declare-const alignment Int)

;; value__size_axiom
  (assert (<= 0 value__size))

;; object__size_axiom
  (assert (<= 0 object__size))

;; component__size_axiom
  (assert (<= 0 component__size))

;; alignment_axiom
  (assert (<= 0 alignment))

(define-fun bool_eq1 ((x us_t)
  (y us_t)) Bool (bool_eq (elts x) (to_rep1 (first (rt x)))
                 (to_rep1 (last (rt x))) (elts y) (to_rep1 (first (rt y)))
                 (to_rep1 (last (rt y)))))

(declare-fun user_eq3 (us_t us_t) Bool)

(declare-const dummy3 us_t)

(declare-datatypes ((digits_array_type__ref 0))
(((digits_array_type__refqtmk (digits_array_type__content us_t)))))
(define-fun digits_array_type__ref_digits_array_type__content__projection ((a digits_array_type__ref)) us_t 
  (digits_array_type__content a))

(declare-datatypes ((t18s__ref 0))
(((t18s__refqtmk (t18s__content us_t)))))
(define-fun t18s__ref_t18s__content__projection ((a t18s__ref)) us_t 
  (t18s__content a))

(declare-datatypes ((us_split_discrs 0))
(((us_split_discrsqtmk
  (rec__very_longs__very_long__octet_length digit_index_type)))))
(define-fun us_split_discrs_rec__very_longs__very_long__octet_length__projection ((a us_split_discrs)) digit_index_type 
  (rec__very_longs__very_long__octet_length a))

(declare-datatypes ((us_split_discrs__ref 0))
(((us_split_discrs__refqtmk (us_split_discrs__content us_split_discrs)))))
(define-fun us_split_discrs__ref___split_discrs__content__projection ((a us_split_discrs__ref)) us_split_discrs 
  (us_split_discrs__content a))

(declare-datatypes ((us_split_fields 0))
(((us_split_fieldsqtmk (rec__very_longs__very_long__long_digits us_t)))))
(define-fun us_split_fields_rec__very_longs__very_long__long_digits__projection ((a us_split_fields)) us_t 
  (rec__very_longs__very_long__long_digits a))

(declare-datatypes ((us_split_fields__ref 0))
(((us_split_fields__refqtmk (us_split_fields__content us_split_fields)))))
(define-fun us_split_fields__ref___split_fields__content__projection ((a us_split_fields__ref)) us_split_fields 
  (us_split_fields__content a))

(declare-datatypes ((us_rep 0))
(((us_repqtmk
  (us_split_discrs1 us_split_discrs)(us_split_fields1 us_split_fields)))))
(define-fun us_rep___split_discrs__projection ((a us_rep)) us_split_discrs 
  (us_split_discrs1 a))

(define-fun us_rep___split_fields__projection ((a us_rep)) us_split_fields 
  (us_split_fields1 a))

(define-fun bool_eq2 ((a us_rep)
  (b us_rep)) Bool (ite (and
                        (= (to_rep
                           (rec__very_longs__very_long__octet_length
                           (us_split_discrs1 a))) (to_rep
                                                  (rec__very_longs__very_long__octet_length
                                                  (us_split_discrs1 b))))
                        (= (bool_eq1
                           (rec__very_longs__very_long__long_digits
                           (us_split_fields1 a))
                           (rec__very_longs__very_long__long_digits
                           (us_split_fields1 b))) true))
                   true false))

(define-fun in_range3 ((rec__very_longs__very_long__octet_length1 Int)
  (a us_split_discrs)) Bool (= rec__very_longs__very_long__octet_length1 
  (to_rep (rec__very_longs__very_long__octet_length a))))

(declare-const value__size1 Int)

(declare-const object__size1 Int)

(declare-const alignment1 Int)

;; value__size_axiom
  (assert (<= 0 value__size1))

;; object__size_axiom
  (assert (<= 0 object__size1))

;; alignment_axiom
  (assert (<= 0 alignment1))

(declare-const very_longs__very_long__octet_length__first__bit Int)

(declare-const very_longs__very_long__octet_length__last__bit Int)

(declare-const very_longs__very_long__octet_length__position Int)

;; very_longs__very_long__octet_length__first__bit_axiom
  (assert (<= 0 very_longs__very_long__octet_length__first__bit))

;; very_longs__very_long__octet_length__last__bit_axiom
  (assert
  (< very_longs__very_long__octet_length__first__bit very_longs__very_long__octet_length__last__bit))

;; very_longs__very_long__octet_length__position_axiom
  (assert (<= 0 very_longs__very_long__octet_length__position))

(declare-const very_longs__very_long__long_digits__first__bit Int)

(declare-const very_longs__very_long__long_digits__last__bit Int)

(declare-const very_longs__very_long__long_digits__position Int)

;; very_longs__very_long__long_digits__first__bit_axiom
  (assert (<= 0 very_longs__very_long__long_digits__first__bit))

;; very_longs__very_long__long_digits__last__bit_axiom
  (assert
  (< very_longs__very_long__long_digits__first__bit very_longs__very_long__long_digits__last__bit))

;; very_longs__very_long__long_digits__position_axiom
  (assert (<= 0 very_longs__very_long__long_digits__position))

(declare-fun user_eq4 (us_rep us_rep) Bool)

(declare-const dummy4 us_rep)

(declare-datatypes ((very_long__ref 0))
(((very_long__refqtmk (very_long__content us_rep)))))
(define-fun very_long__ref_very_long__content__projection ((a very_long__ref)) us_rep 
  (very_long__content a))

(define-fun dynamic_invariant ((temp___expr_259 us_rep)
  (temp___is_init_255 Bool) (temp___skip_constant_256 Bool)
  (temp___do_toplevel_257 Bool)
  (temp___do_typ_inv_258 Bool)) Bool (let ((temp___260 (rec__very_longs__very_long__octet_length
                                                       (us_split_discrs1
                                                       temp___expr_259))))
                                     (and (dynamic_property 1
                                     (to_rep temp___260)
                                     (first1
                                     (rec__very_longs__very_long__long_digits
                                     (us_split_fields1 temp___expr_259)))
                                     (last1
                                     (rec__very_longs__very_long__long_digits
                                     (us_split_fields1 temp___expr_259))))
                                     (and
                                     (= (first1
                                        (rec__very_longs__very_long__long_digits
                                        (us_split_fields1 temp___expr_259))) 1)
                                     (= (last1
                                        (rec__very_longs__very_long__long_digits
                                        (us_split_fields1 temp___expr_259))) 
                                     (to_rep temp___260))))))

(declare-fun is_zero (us_rep) Bool)

(declare-fun is_zero__function_guard (Bool us_rep) Bool)

;; is_zero__post_axiom
  (assert true)

;; is_zero__def_axiom
  (assert
  (forall ((number us_rep))
  (! (= (= (is_zero number) true)
     (forall ((i Int))
     (=>
     (and (<= 1 i)
     (<= i (last1
           (rec__very_longs__very_long__long_digits
           (us_split_fields1 number)))))
     (= (to_rep2
        (let ((temp___320 (rec__very_longs__very_long__long_digits
                          (us_split_fields1 number))))
        (select (to_array temp___320) i))) #x00)))) :pattern ((is_zero
                                                              number)) )))

(declare-const number us_rep)

(declare-const attr__ATTRIBUTE_ADDRESS Int)

(declare-const attr__ATTRIBUTE_ADDRESS1 Int)

(declare-const attr__ATTRIBUTE_ADDRESS2 Int)

(define-fun dynamic_invariant1 ((temp___expr_239 Int)
  (temp___is_init_235 Bool) (temp___skip_constant_236 Bool)
  (temp___do_toplevel_237 Bool)
  (temp___do_typ_inv_238 Bool)) Bool (=>
                                     (or (= temp___is_init_235 true)
                                     (<= 1 2147483647)) (in_range1
                                     temp___expr_239)))

(define-fun dynamic_property1 ((first_int Int) (last_int Int)
  (x Int)) Bool (and (<= first_int x) (<= x last_int)))

(declare-fun attr__ATTRIBUTE_IMAGE4 (Int) us_image)

(declare-fun attr__ATTRIBUTE_VALUE__pre_check4 (us_image) Bool)

(declare-fun attr__ATTRIBUTE_VALUE4 (us_image) Int)

(declare-fun user_eq5 (tdigit_index_typeB tdigit_index_typeB) Bool)

(declare-const dummy5 tdigit_index_typeB)

(declare-datatypes ((t108b__ref 0))
(((t108b__refqtmk (t108b__content tdigit_index_typeB)))))
(define-fun t108b__ref_t108b__content__projection ((a t108b__ref)) tdigit_index_typeB 
  (t108b__content a))

(define-fun dynamic_invariant2 ((temp___expr_246 (_ BitVec 8))
  (temp___is_init_242 Bool) (temp___skip_constant_243 Bool)
  (temp___do_toplevel_244 Bool) (temp___do_typ_inv_245 Bool)) Bool true)

(assert
;; defqtvc
 ;; File "very_longs.adb", line 326, characters 0-0
  (not
  (forall ((digit_index Int))
  (=> (dynamic_invariant number true false true true)
  (=> (is_zero__function_guard (is_zero number) number)
  (=> (not (= (is_zero number) true))
  (=> (= digit_index 1)
  (=> (dynamic_invariant1 digit_index true false true true)
  (let ((temp___1303 (last1
                     (rec__very_longs__very_long__long_digits
                     (us_split_fields1 number)))))
  (forall ((i Int))
  (=> (= i 1)
  (=>
  (= (and (ite (<= 1 i) true false) (ite (<= i temp___1303) true false)) true)
  (forall ((spark__branch Bool) (digit_index1 Int))
  (=>
  (let ((temp___1304 (rec__very_longs__very_long__long_digits
                     (us_split_fields1 number))))
  (and (and (<= (first1 temp___1304) i) (<= i (last1 temp___1304)))
  (exists ((o (_ BitVec 8)))
  (and (= (to_rep2 (select (to_array temp___1304) i)) o)
  (and (= spark__branch (ite (not (= o #x00)) true false))
  (ite (= spark__branch true) (= digit_index1 i)
  (= digit_index1 digit_index)))))))
  (=> (in_range2 (+ i 1))
  (let ((temp___1312 (rec__very_longs__very_long__long_digits
                     (us_split_fields1 number))))
  (=>
  (and (<= (first1 temp___1312) digit_index1)
  (<= digit_index1 (last1 temp___1312)))
  (forall ((o (_ BitVec 8)))
  (=> (= (to_rep2 (select (to_array temp___1312) digit_index1)) o)
  (forall ((digit_index2 Int) (i1 Int))
  (=>
  (and
  (or
  (not
  (= (to_rep2
     (select (to_array
             (rec__very_longs__very_long__long_digits
             (us_split_fields1 number))) digit_index2)) #x00))
  (exists ((j Int))
  (and
  (and (<= (+ i1 1) j)
  (<= j (last1
        (rec__very_longs__very_long__long_digits (us_split_fields1 number)))))
  (not
  (= (to_rep2
     (select (to_array
             (rec__very_longs__very_long__long_digits
             (us_split_fields1 number))) j)) #x00)))))
  (=> (< digit_index2 i1)
  (forall ((j Int))
  (=> (and (<= (+ digit_index2 1) j) (<= j i1))
  (= (to_rep2
     (select (to_array
             (rec__very_longs__very_long__long_digits
             (us_split_fields1 number))) j)) #x00)))))
  (=>
  (= (and (ite (and (dynamic_invariant1 digit_index2 true true true true)
               (dynamic_property1 1
               (last1
               (rec__very_longs__very_long__long_digits
               (us_split_fields1 number))) i1))
          true false) (ite (and (<= 1 i1)
                           (<= i1 (last1
                                  (rec__very_longs__very_long__long_digits
                                  (us_split_fields1 number)))))
                      true false)) true)
  (=> (not (= i1 temp___1303))
  (forall ((i2 Int))
  (=> (= i2 (+ i1 1))
  (forall ((digit_index3 Int))
  (=>
  (let ((temp___1304 (rec__very_longs__very_long__long_digits
                     (us_split_fields1 number))))
  (and (and (<= (first1 temp___1304) i2) (<= i2 (last1 temp___1304)))
  (exists ((o1 (_ BitVec 8)))
  (and (= (to_rep2 (select (to_array temp___1304) i2)) o1)
  (exists ((spark__branch1 Bool))
  (and (= spark__branch1 (ite (not (= o1 #x00)) true false))
  (ite (= spark__branch1 true) (= digit_index3 i2)
  (= digit_index3 digit_index2))))))))
  (=> (in_range2 (+ i2 1))
  (let ((temp___13121 (rec__very_longs__very_long__long_digits
                      (us_split_fields1 number))))
  (=>
  (and (<= (first1 temp___13121) digit_index3)
  (<= digit_index3 (last1 temp___13121)))
  (forall ((o1 (_ BitVec 8)))
  (=> (= (to_rep2 (select (to_array temp___13121) digit_index3)) o1)
  (=>
  (or
  (not
  (= (to_rep2
     (select (to_array
             (rec__very_longs__very_long__long_digits
             (us_split_fields1 number))) digit_index3)) #x00))
  (exists ((j Int))
  (and
  (and (<= (+ i2 1) j)
  (<= j (last1
        (rec__very_longs__very_long__long_digits (us_split_fields1 number)))))
  (not
  (= (to_rep2
     (select (to_array
             (rec__very_longs__very_long__long_digits
             (us_split_fields1 number))) j)) #x00)))))
  (=> (< digit_index3 i2)
  (forall ((j Int))
  (=> (and (<= (+ digit_index3 1) j) (<= j i2))
  (= (to_rep2
     (select (to_array
             (rec__very_longs__very_long__long_digits
             (us_split_fields1 number))) j)) #x00)))))))))))))))))))))))))))))))))))))
(check-sat)
